0
Node Left Objective IInf Best_Integer Best_Bound ItCnt Gap
0 0 0.0000 29 0.0000 11
0+ 0 nan nan 3639.0614 0.0000 nan 100.00%
0+ 0 nan nan 1030.0134 0.0000 nan 100.00%
0+ 0 nan nan 150.7464 0.0000 nan 100.00%
0 2 0.0000 29 150.7464 0.0000 11 100.00%
CPXPARAM_MIP_Cuts_ZeroHalfCut 0
1
Node Left Objective IInf Best_Integer Best_Bound ItCnt Gap
0 0 0.0000 29 0.0000 12
0+ 0 nan nan 4384.8801 0.0000 nan 100.00%
0+ 0 nan nan 713.7452 0.0000 nan 100.00%
0+ 0 nan nan 698.6529 0.0000 nan 100.00%
0+ 0 nan nan 193.8439 0.0000 nan 100.00%
0 2 0.0000 29 193.8439 0.0000 12 100.00%
CPXPARAM_MIP_Cuts_ZeroHalfCut 0
2
Node Left Objective IInf Best_Integer Best_Bound ItCnt Gap
0 0 -0.0000 29 -0.0000 10
0+ 0 nan nan 4092.1648 -0.0000 nan 100.00%
0+ 0 nan nan 1030.0134 0.0000 nan 100.00%
0+ 0 nan nan 150.7464 0.0000 nan 100.00%
0 2 0.0000 29 150.7464 0.0000 10 100.00%
CPXPARAM_MIP_Cuts_ZeroHalfCut 0
3
Node Left Objective IInf Best_Integer Best_Bound ItCnt Gap
0 0 0.0000 29 0.0000 13
0+ 0 nan nan 3700.3295 0.0000 nan 100.00%
0+ 0 nan nan 707.7725 0.0000 nan 100.00%
0+ 0 nan nan 567.5361 0.0000 nan 100.00%
0+ 0 nan nan 215.4988 0.0000 nan 100.00%
0 2 0.0000 29 215.4988 0.0000 13 100.00%
CPXPARAM_MIP_Cuts_ZeroHalfCut 0
4
Node Left Objective IInf Best_Integer Best_Bound ItCnt Gap
0 0 -0.0000 29 -0.0000 13
0+ 0 nan nan 3971.8503 -0.0000 nan 100.00%
0+ 0 nan nan 907.4894 -0.0000 nan 100.00%
0+ 0 nan nan 827.1962 -0.0000 nan 100.00%
0+ 0 nan nan 363.3925 -0.0000 nan 100.00%
0 2 -0.0000 29 363.3925 -0.0000 13 100.00%
CPXPARAM_MIP_Cuts_ZeroHalfCut 0
5
Node Left Objective IInf Best_Integer Best_Bound ItCnt Gap
0 0 0.0000 29 0.0000 12
0+ 0 nan nan 3822.3102 0.0000 nan 100.00%
0+ 0 nan nan 921.8298 0.0000 nan 100.00%
0+ 0 nan nan 848.7759 0.0000 nan 100.00%
0+ 0 nan nan 141.5589 0.0000 nan 100.00%
0 2 0.0000 29 141.5589 0.0000 12 100.00%
CPXPARAM_MIP_Cuts_ZeroHalfCut 0
6
Node Left Objective IInf Best_Integer Best_Bound ItCnt Gap
0 0 -0.0000 29 -0.0000 12
0+ 0 nan nan 3318.6391 -0.0000 nan 100.00%
0+ 0 nan nan 1141.1136 -0.0000 nan 100.00%
0+ 0 nan nan 875.8024 -0.0000 nan 100.00%
0 2 -0.0000 29 875.8024 -0.0000 12 100.00%
CPXPARAM_MIP_Cuts_ZeroHalfCut 0
7
Node Left Objective IInf Best_Integer Best_Bound ItCnt Gap
0 0 -0.0000 29 -0.0000 13
0+ 0 nan nan 4168.3936 -0.0000 nan 100.00%
0+ 0 nan nan 804.5059 -0.0000 nan 100.00%
0+ 0 nan nan 129.6052 -0.0000 nan 100.00%
0 2 -0.0000 29 129.6052 -0.0000 13 100.00%
CPXPARAM_MIP_Cuts_ZeroHalfCut 0
8
Node Left Objective IInf Best_Integer Best_Bound ItCnt Gap
0 0 0.0000 29 0.0000 12
0+ 0 nan nan 3218.8519 0.0000 nan 100.00%
0+ 0 nan nan 1182.1276 0.0000 nan 100.00%
0+ 0 nan nan 329.5417 0.0000 nan 100.00%
0 2 0.0000 29 329.5417 0.0000 12 100.00%
CPXPARAM_MIP_Cuts_ZeroHalfCut 0
9
Node Left Objective IInf Best_Integer Best_Bound ItCnt Gap
0 0 0.0000 29 0.0000 12
0+ 0 nan nan 3300.1116 0.0000 nan 100.00%
0+ 0 nan nan 989.3200 0.0000 nan 100.00%
0+ 0 nan nan 542.2401 0.0000 nan 100.00%
0+ 0 nan nan 102.5757 0.0000 nan 100.00%
0 2 0.0000 29 102.5757 0.0000 12 100.00%
CPXPARAM_MIP_Cuts_ZeroHalfCut 0
10
Node Left Objective IInf Best_Integer Best_Bound ItCnt Gap
0 0 -0.0000 29 -0.0000 12
0+ 0 nan nan 4847.4446 -0.0000 nan 100.00%
0+ 0 nan nan 1182.1276 -0.0000 nan 100.00%
0+ 0 nan nan 148.2770 -0.0000 nan 100.00%
0 2 -0.0000 29 148.2770 -0.0000 12 100.00%
CPXPARAM_MIP_Cuts_ZeroHalfCut 0
11
Node Left Objective IInf Best_Integer Best_Bound ItCnt Gap
0 0 0.0000 11 0.0000 10
0+ 0 nan nan 2555.8318 0.0000 nan 100.00%
0+ 0 nan nan 158.2803 0.0000 nan 100.00%
0+ 0 nan nan 15.2792 0.0000 nan 100.00%
0 2 0.0000 11 15.2792 0.0000 10 100.00%
CPXPARAM_MIP_Cuts_ZeroHalfCut 0
12
Node Left Objective IInf Best_Integer Best_Bound ItCnt Gap
0 0 -0.0000 29 -0.0000 12
0+ 0 nan nan 2594.6902 -0.0000 nan 100.00%
0+ 0 nan nan 1022.2787 -0.0000 nan 100.00%
0+ 0 nan nan 129.0326 -0.0000 nan 100.00%
0 2 -0.0000 29 129.0326 -0.0000 12 100.00%
CPXPARAM_MIP_Cuts_ZeroHalfCut 0
13
Node Left Objective IInf Best_Integer Best_Bound ItCnt Gap
0 0 -0.0000 29 -0.0000 10
0+ 0 nan nan 2656.4873 -0.0000 nan 100.00%
0+ 0 nan nan 805.3814 -0.0000 nan 100.00%
0+ 0 nan nan 584.8082 -0.0000 nan 100.00%
0+ 0 nan nan 102.2661 -0.0000 nan 100.00%
0 2 -0.0000 29 102.2661 -0.0000 10 100.00%
CPXPARAM_MIP_Cuts_ZeroHalfCut 0
14
Node Left Objective IInf Best_Integer Best_Bound ItCnt Gap
0 0 -0.0000 29 -0.0000 11
0+ 0 nan nan 4539.6249 -0.0000 nan 100.00%
0+ 0 nan nan 1010.9787 -0.0000 nan 100.00%
0+ 0 nan nan 99.8545 -0.0000 nan 100.00%
0 2 -0.0000 29 99.8545 -0.0000 11 100.00%
CPXPARAM_MIP_Cuts_ZeroHalfCut 0
15
Node Left Objective IInf Best_Integer Best_Bound ItCnt Gap
0 0 -0.0000 29 -0.0000 10
0+ 0 nan nan 2628.7063 -0.0000 nan 100.00%
0+ 0 nan nan 805.3814 -0.0000 nan 100.00%
0+ 0 nan nan 748.5879 -0.0000 nan 100.00%
0+ 0 nan nan 102.2661 -0.0000 nan 100.00%
0 2 -0.0000 29 102.2661 -0.0000 10 100.00%
CPXPARAM_MIP_Cuts_ZeroHalfCut 0
16
Node Left Objective IInf Best_Integer Best_Bound ItCnt Gap
0 0 0.0000 29 0.0000 12
0+ 0 nan nan 2717.6512 0.0000 nan 100.00%
0+ 0 nan nan 958.4069 0.0000 nan 100.00%
0+ 0 nan nan 87.5045 0.0000 nan 100.00%
0 2 -0.0000 29 87.5045 0.0000 12 100.00%
CPXPARAM_MIP_Cuts_ZeroHalfCut 0
17
Node Left Objective IInf Best_Integer Best_Bound ItCnt Gap
0 0 0.0000 29 0.0000 13
0+ 0 nan nan 2710.4877 0.0000 nan 100.00%
0+ 0 nan nan 988.8364 0.0000 nan 100.00%
0+ 0 nan nan 930.2395 0.0000 nan 100.00%
0+ 0 nan nan 71.0901 0.0000 nan 100.00%
0 2 0.0000 29 71.0901 0.0000 13 100.00%
CPXPARAM_MIP_Cuts_ZeroHalfCut 0
18
Node Left Objective IInf Best_Integer Best_Bound ItCnt Gap
0 0 0.0000 29 0.0000 12
0+ 0 nan nan 2596.8951 0.0000 nan 100.00%
0+ 0 nan nan 1050.9216 0.0000 nan 100.00%
0+ 0 nan nan 946.4803 0.0000 nan 100.00%
0 2 0.0000 29 946.4803 0.0000 12 100.00%
CPXPARAM_MIP_Cuts_ZeroHalfCut 0
19
Node Left Objective IInf Best_Integer Best_Bound ItCnt Gap
0 0 -0.0000 29 -0.0000 10
0+ 0 nan nan 2751.8816 -0.0000 nan 100.00%
0+ 0 nan nan 876.8822 -0.0000 nan 100.00%
0+ 0 nan nan 533.2362 -0.0000 nan 100.00%
0+ 0 nan nan 109.7229 -0.0000 nan 100.00%
0 2 -0.0000 29 109.7229 -0.0000 10 100.00%
CPXPARAM_MIP_Cuts_ZeroHalfCut 0
20
Node Left Objective IInf Best_Integer Best_Bound ItCnt Gap
0 0 -0.0000 29 -0.0000 13
0+ 0 nan nan 4798.5207 -0.0000 nan 100.00%
0+ 0 nan nan 1005.3147 0.0000 nan 100.00%
0+ 0 nan nan 1003.8943 0.0000 nan 100.00%
0+ 0 nan nan 414.1775 0.0000 nan 100.00%
0 2 0.0000 29 414.1775 0.0000 13 100.00%
CPXPARAM_MIP_Cuts_ZeroHalfCut 0
21
Node Left Objective IInf Best_Integer Best_Bound ItCnt Gap
0 0 0.0000 29 0.0000 12
0+ 0 nan nan 4820.4344 0.0000 nan 100.00%
0+ 0 nan nan 586.9854 0.0000 nan 100.00%
0+ 0 nan nan 578.0303 0.0000 nan 100.00%
0+ 0 nan nan 241.3252 0.0000 nan 100.00%
0 2 0.0000 29 241.3252 0.0000 12 100.00%
CPXPARAM_MIP_Cuts_ZeroHalfCut 0
22
Node Left Objective IInf Best_Integer Best_Bound ItCnt Gap
0 0 -0.0000 29 -0.0000 13
0+ 0 nan nan 4484.4124 -0.0000 nan 100.00%
0+ 0 nan nan 2254.1404 -0.0000 nan 100.00%
0+ 0 nan nan 2056.8326 -0.0000 nan 100.00%
0+ 0 nan nan 1778.0563 -0.0000 nan 100.00%
0+ 0 nan nan 1375.8358 -0.0000 nan 100.00%
0 2 -0.0000 29 1375.8358 -0.0000 13 100.00%
CPXPARAM_MIP_Cuts_ZeroHalfCut 0
23
Node Left Objective IInf Best_Integer Best_Bound ItCnt Gap
0 0 0.0000 29 0.0000 12
0+ 0 nan nan 4606.5142 0.0000 nan 100.00%
0+ 0 nan nan 621.5153 0.0000 nan 100.00%
0+ 0 nan nan 509.8046 0.0000 nan 100.00%
0+ 0 nan nan 241.9835 0.0000 nan 100.00%
0 2 0.0000 29 241.9835 0.0000 12 100.00%
CPXPARAM_MIP_Cuts_ZeroHalfCut 0
24
Node Left Objective IInf Best_Integer Best_Bound ItCnt Gap
0 0 0.0000 29 0.0000 12
0+ 0 nan nan 3274.5609 0.0000 nan 100.00%
0+ 0 nan nan 793.8236 0.0000 nan 100.00%
0+ 0 nan nan 703.5513 0.0000 nan 100.00%
0+ 0 nan nan 299.4441 0.0000 nan 100.00%
0 2 0.0000 29 299.4441 0.0000 12 100.00%
CPXPARAM_MIP_Cuts_ZeroHalfCut 0
25
Node Left Objective IInf Best_Integer Best_Bound ItCnt Gap
0 0 0.0000 29 0.0000 10
0+ 0 nan nan 2975.3653 0.0000 nan 100.00%
0+ 0 nan nan 691.3327 0.0000 nan 100.00%
0+ 0 nan nan 386.6053 0.0000 nan 100.00%
0+ 0 nan nan 139.9321 0.0000 nan 100.00%
0 2 0.0000 29 139.9321 0.0000 10 100.00%
CPXPARAM_MIP_Cuts_ZeroHalfCut 0
26
Node Left Objective IInf Best_Integer Best_Bound ItCnt Gap
0 0 0.0000 29 0.0000 12
0+ 0 nan nan 3222.3632 0.0000 nan 100.00%
0+ 0 nan nan 939.6644 0.0000 nan 100.00%
0+ 0 nan nan 806.0014 0.0000 nan 100.00%
0+ 0 nan nan 772.4161 0.0000 nan 100.00%
0 2 0.0000 29 772.4161 0.0000 12 100.00%
CPXPARAM_MIP_Cuts_ZeroHalfCut 0
27
Node Left Objective IInf Best_Integer Best_Bound ItCnt Gap
0 0 0.0000 29 0.0000 10
0+ 0 nan nan 2978.7946 0.0000 nan 100.00%
0+ 0 nan nan 691.3327 0.0000 nan 100.00%
0+ 0 nan nan 386.6053 0.0000 nan 100.00%
0+ 0 nan nan 141.6644 0.0000 nan 100.00%
0 2 0.0000 29 141.6644 0.0000 10 100.00%
CPXPARAM_MIP_Cuts_ZeroHalfCut 0
28
Node Left Objective IInf Best_Integer Best_Bound ItCnt Gap
0 0 0.0000 29 0.0000 12
0+ 0 nan nan 3766.2645 0.0000 nan 100.00%
0+ 0 nan nan 1224.3911 0.0000 nan 100.00%
0+ 0 nan nan 284.5206 0.0000 nan 100.00%
0 2 0.0000 29 284.5206 0.0000 12 100.00%
CPXPARAM_MIP_Cuts_ZeroHalfCut 0
29
Node Left Objective IInf Best_Integer Best_Bound ItCnt Gap
0 0 0.0000 29 0.0000 12
0+ 0 nan nan 3736.4444 0.0000 nan 100.00%
0+ 0 nan nan 1047.8755 0.0000 nan 100.00%
0+ 0 nan nan 273.2809 0.0000 nan 100.00%
0+ 0 nan nan 51.0103 0.0000 nan 100.00%
0 2 0.0000 29 51.0103 0.0000 12 100.00%
CPXPARAM_MIP_Cuts_ZeroHalfCut 0
30
Node Left Objective IInf Best_Integer Best_Bound ItCnt Gap
0 0 -0.0000 29 -0.0000 13
0+ 0 nan nan 3675.5369 -0.0000 nan 100.00%
0+ 0 nan nan 1298.3610 -0.0000 nan 100.00%
0+ 0 nan nan 993.4505 -0.0000 nan 100.00%
0+ 0 nan nan 308.4318 -0.0000 nan 100.00%
0 2 -0.0000 29 308.4318 -0.0000 13 100.00%
CPXPARAM_MIP_Cuts_ZeroHalfCut 0
31
Node Left Objective IInf Best_Integer Best_Bound ItCnt Gap
0 0 0.0000 29 0.0000 11
0+ 0 nan nan 3753.4490 0.0000 nan 100.00%
0+ 0 nan nan 1113.6043 0.0000 nan 100.00%
0+ 0 nan nan 851.2246 0.0000 nan 100.00%
0+ 0 nan nan 207.2502 0.0000 nan 100.00%
0 2 0.0000 29 207.2502 0.0000 11 100.00%
CPXPARAM_MIP_Cuts_ZeroHalfCut 0
32
Node Left Objective IInf Best_Integer Best_Bound ItCnt Gap
0 0 -0.0000 29 -0.0000 11
0+ 0 nan nan 2266.8594 -0.0000 nan 100.00%
0+ 0 nan nan 977.1754 -0.0000 nan 100.00%
0+ 0 nan nan 99.3791 -0.0000 nan 100.00%
0 2 -0.0000 29 99.3791 -0.0000 11 100.00%
CPXPARAM_MIP_Cuts_ZeroHalfCut 0
33
Node Left Objective IInf Best_Integer Best_Bound ItCnt Gap
0 0 -0.0000 29 -0.0000 11
0+ 0 nan nan 2849.8040 -0.0000 nan 100.00%
0+ 0 nan nan 690.4898 -0.0000 nan 100.00%
0+ 0 nan nan 552.8149 -0.0000 nan 100.00%
0+ 0 nan nan 102.4860 -0.0000 nan 100.00%
0 2 -0.0000 29 102.4860 -0.0000 11 100.00%
CPXPARAM_MIP_Cuts_ZeroHalfCut 0
34
Node Left Objective IInf Best_Integer Best_Bound ItCnt Gap
0 0 0.0000 29 0.0000 12
0+ 0 nan nan 2714.7275 0.0000 nan 100.00%
0+ 0 nan nan 941.9069 0.0000 nan 100.00%
0+ 0 nan nan 739.9422 0.0000 nan 100.00%
0+ 0 nan nan 201.8082 0.0000 nan 100.00%
0 2 -0.0000 29 201.8082 0.0000 12 100.00%
CPXPARAM_MIP_Cuts_ZeroHalfCut 0
35
Node Left Objective IInf Best_Integer Best_Bound ItCnt Gap
0 0 -0.0000 29 -0.0000 12
0+ 0 nan nan 3601.7452 -0.0000 nan 100.00%
0+ 0 nan nan 730.5667 -0.0000 nan 100.00%
0+ 0 nan nan 557.9278 -0.0000 nan 100.00%
0+ 0 nan nan 169.5326 -0.0000 nan 100.00%
0 2 -0.0000 29 169.5326 -0.0000 12 100.00%
CPXPARAM_MIP_Cuts_ZeroHalfCut 0
36
Node Left Objective IInf Best_Integer Best_Bound ItCnt Gap
0 0 -0.0000 29 -0.0000 12
0+ 0 nan nan 3336.9274 -0.0000 nan 100.00%
0+ 0 nan nan 981.8426 -0.0000 nan 100.00%
0+ 0 nan nan 660.7984 -0.0000 nan 100.00%
0+ 0 nan nan 319.6526 -0.0000 nan 100.00%
0 2 -0.0000 29 319.6526 -0.0000 12 100.00%
CPXPARAM_MIP_Cuts_ZeroHalfCut 0
37
Node Left Objective IInf Best_Integer Best_Bound ItCnt Gap
0 0 0.0000 29 0.0000 11
0+ 0 nan nan 3439.0454 0.0000 nan 100.00%
0+ 0 nan nan 813.3288 0.0000 nan 100.00%
0+ 0 nan nan 543.2077 0.0000 nan 100.00%
0+ 0 nan nan 97.8305 0.0000 nan 100.00%
0 2 0.0000 29 97.8305 0.0000 11 100.00%
CPXPARAM_MIP_Cuts_ZeroHalfCut 0
38
Node Left Objective IInf Best_Integer Best_Bound ItCnt Gap
0 0 -0.0000 29 -0.0000 12
0+ 0 nan nan 3342.0025 -0.0000 nan 100.00%
0+ 0 nan nan 981.8426 -0.0000 nan 100.00%
0+ 0 nan nan 685.2211 -0.0000 nan 100.00%
0+ 0 nan nan 329.4544 -0.0000 nan 100.00%
0 2 -0.0000 29 329.4544 -0.0000 12 100.00%
CPXPARAM_MIP_Cuts_ZeroHalfCut 0
39
Node Left Objective IInf Best_Integer Best_Bound ItCnt Gap
0 0 0.0000 29 0.0000 11
0+ 0 nan nan 3367.5754 0.0000 nan 100.00%
0+ 0 nan nan 860.4887 0.0000 nan 100.00%
0+ 0 nan nan 586.3925 0.0000 nan 100.00%
0+ 0 nan nan 179.1498 0.0000 nan 100.00%
0 2 0.0000 29 179.1498 0.0000 11 100.00%
CPXPARAM_MIP_Cuts_ZeroHalfCut 0
